160316
0,86,43,58,65,27,26,9,88,92,11,28,29,4,54,96,7,105,91,22,56,79,82,33,25,8,98,99,44,80,24,61,21,20,45,76,85,5,68,39,55,63,89,16,15,19,12,87,51,64,30,97,41,18,67,49,46,74,31,62,52,6,48,17,36,38,83,34,50,71,81,32,1,72,47,84,35,53,70,103,94,66,10,40,37,104,2,77,100,69,93,95,59,42,78,90,14,3,102,60,13,73,101,23,75,57,0